(set-logic QF_S)
(declare-fun J () String)
(declare-fun T () String)
(declare-fun R () String)
(declare-fun V () String)
(declare-fun G () String)
(declare-fun L () String)
(declare-fun N () String)
(declare-fun O () String)
(declare-fun M () String)
(declare-fun P () String)
(declare-fun Q () String)
(assert (= (str.++  J G "a" J G "b" J "aa" J M "a" J "b" P O P "b" Q P "b" T)  (str.++  "aaaaaa" G "aaaaaa" L L "b" N "aa" N "aab" Q R Q R "b" V V "baa") ))
(check-sat)
(get-model)
